p cnf 20 30
-4 -9 -3 -14 0
-10 -18 0
7 -6 -7 -14 0
12 0
-19 -12 -3 -4 0
16 -5 -15 0
12 -9 -11 0
8 0
-16 0
-14 0
19 0
15 -2 -3 0
-20 -1 -18 -2 0
1 -7 -16 0
8 -2 -4 -5 0
5 0
-11 -10 -19 -10 0
1 -3 -5 -14 0
-7 -14 0
-12 0
15 -7 -7 0
17 -2 0
-1 -17 -17 0
3 -12 -14 0
12 -10 -15 0
-12 0
19 0
6 -16 -1 0
-10 -5 0
-12 -1 -9 0